p cnf 157 408
a 11 14 2 4 10 22 29 31 71 80 91 103 113 124 134 150 1 9 20 28 0
d 50 1 9 0
d 78 20 28 0
d 3 2 0
d 5 4 0
d 6 2 4 0
d 7 1 2 4 0
d 8 1 2 4 0
d 12 11 0
d 13 10 11 0
d 15 14 0
d 16 10 11 14 0
d 17 9 10 11 14 0
d 18 9 10 11 14 0
d 19 1 2 4 9 10 11 14 0
d 21 10 0
d 23 22 0
d 24 10 22 0
d 25 20 10 22 0
d 26 20 10 22 0
d 27 1 2 4 9 10 11 14 20 22 0
d 30 29 0
d 32 31 0
d 33 29 31 0
d 34 28 29 31 0
d 35 28 29 31 0
d 36 1 2 4 9 10 11 14 20 22 28 29 31 0
d 37 11 0
d 38 11 14 0
d 39 11 14 0
d 40 11 14 0
d 41 2 11 0
d 42 2 11 14 0
d 43 2 11 14 0
d 44 11 14 2 0
d 45 11 14 0
d 46 11 14 2 0
d 47 11 14 2 4 0
d 48 11 14 2 4 0
d 49 11 14 2 4 0
d 51 2 4 10 11 14 0
d 52 1 9 2 4 10 11 14 0
d 53 11 14 2 4 1 9 10 0
d 54 10 22 0
d 55 11 14 2 4 0
d 56 10 22 11 14 2 4 0
d 57 10 22 11 14 2 4 0
d 58 11 14 2 4 1 9 10 22 0
d 59 29 11 0
d 60 29 11 14 0
d 61 2 4 10 0
d 62 2 4 10 22 0
d 63 29 11 14 2 4 10 22 0
d 64 29 11 14 2 4 10 22 0
d 65 11 14 2 4 1 9 10 22 29 0
d 66 10 22 29 0
d 67 10 22 29 31 0
d 68 11 14 2 4 10 22 29 31 0
d 69 11 14 2 4 10 22 29 31 0
d 70 11 14 2 4 1 9 10 22 29 31 0
d 72 71 11 0
d 73 71 11 14 0
d 74 29 31 71 11 14 0
d 75 2 4 10 22 29 31 71 11 14 0
d 76 2 4 10 22 29 31 71 11 14 0
d 77 11 14 2 4 1 9 10 22 29 31 71 0
d 79 71 0
d 81 71 80 0
d 82 71 80 11 14 2 4 0
d 83 20 28 71 80 11 14 2 4 0
d 84 10 22 29 31 0
d 85 10 22 29 31 71 80 11 14 2 4 0
d 86 20 28 71 80 11 14 2 4 10 22 29 31 0
d 87 11 14 2 4 1 9 10 22 29 31 71 20 28 80 0
d 88 80 0
d 89 71 80 0
d 90 29 31 71 80 0
d 92 91 11 0
d 93 91 11 14 0
d 94 91 11 14 2 4 10 22 0
d 95 29 31 71 80 91 11 14 2 4 10 22 0
d 96 29 31 71 0
d 97 29 31 71 80 0
d 98 29 31 71 80 91 11 14 2 4 10 22 0
d 99 29 31 71 80 91 11 14 2 4 10 22 0
d 100 11 14 2 4 1 9 10 22 29 31 71 20 28 80 91 0
d 101 91 0
d 102 71 80 91 0
d 104 71 80 91 103 0
d 105 11 14 2 4 20 28 0
d 106 71 80 91 103 11 14 2 4 20 28 0
d 107 11 14 2 4 10 22 29 31 0
d 108 71 80 91 103 11 14 2 4 10 22 29 31 0
d 109 71 80 91 103 11 14 2 4 20 28 10 22 29 31 0
d 110 11 14 2 4 1 9 10 22 29 31 71 20 28 80 91 103 0
d 111 103 0
d 112 91 103 0
d 114 113 11 0
d 115 113 11 14 0
d 116 91 103 113 11 14 0
d 117 2 4 10 22 29 31 71 80 0
d 118 91 103 113 11 14 2 4 10 22 29 31 71 80 0
d 119 2 4 10 22 29 31 71 80 0
d 120 91 103 113 11 14 2 4 10 22 29 31 71 80 0
d 121 91 103 113 11 14 2 4 10 22 29 31 71 80 0
d 122 11 14 2 4 1 9 10 22 29 31 71 20 28 80 91 103 113 0
d 123 113 0
d 125 113 124 0
d 126 113 124 11 14 2 4 0
d 127 71 80 91 103 0
d 128 20 28 71 80 91 103 0
d 129 113 124 11 14 2 4 20 28 71 80 91 103 0
d 130 10 22 29 31 71 80 91 103 0
d 131 113 124 11 14 2 4 10 22 29 31 71 80 91 103 0
d 132 113 124 11 14 2 4 20 28 71 80 91 103 10 22 29 31 0
d 133 11 14 2 4 1 9 10 22 29 31 71 20 28 80 91 103 113 124 0
d 135 134 11 0
d 136 134 11 14 0
d 137 134 11 14 2 4 10 22 0
d 138 91 103 113 0
d 139 124 0
d 140 91 103 113 124 0
d 141 29 31 71 80 91 103 113 124 0
d 142 134 11 14 2 4 10 22 29 31 71 80 91 103 113 124 0
d 143 29 31 71 80 91 103 113 124 0
d 144 134 11 14 2 4 10 22 29 31 71 80 91 103 113 124 0
d 145 134 11 14 2 4 10 22 29 31 71 80 91 103 113 124 0
d 146 11 14 2 4 1 9 10 22 29 31 71 20 28 80 91 103 113 124 134 0
d 147 113 124 0
d 148 134 0
d 149 113 124 134 0
d 151 113 124 134 150 0
d 152 71 80 91 103 113 124 134 150 0
d 153 11 14 2 4 20 28 71 80 91 103 113 124 134 150 0
d 154 11 14 2 4 10 22 29 31 71 80 91 103 113 124 134 150 0
d 155 11 14 2 4 20 28 71 80 91 103 113 124 134 150 10 22 29 31 0
d 156 11 14 2 4 1 9 10 22 29 31 71 20 28 80 91 103 113 124 134 150 0
d 157 1 2 4 9 10 11 14 20 22 28 29 31 71 80 91 103 113 124 134 150 0
3 2 0
-3 -2 0
5 4 0
-5 -4 0
-6 3 0
-6 5 0
6 -3 -5 0
7 -1 -6 0
7 1 6 0
-7 -1 6 0
-7 1 -6 0
8 7 0
-8 -7 0
12 11 0
-12 -11 0
-13 10 0
-13 12 0
13 -10 -12 0
15 14 0
-15 -14 0
-16 13 0
-16 15 0
16 -13 -15 0
17 -9 -16 0
17 9 16 0
-17 -9 16 0
-17 9 -16 0
18 17 0
-18 -17 0
19 -8 0
19 -18 0
-19 8 18 0
21 10 0
-21 -10 0
23 22 0
-23 -22 0
-24 21 0
-24 23 0
24 -21 -23 0
25 -20 -24 0
25 20 24 0
-25 -20 24 0
-25 20 -24 0
26 25 0
-26 -25 0
27 -19 0
27 -26 0
-27 19 26 0
30 29 0
-30 -29 0
32 31 0
-32 -31 0
-33 30 0
-33 32 0
33 -30 -32 0
34 -28 -33 0
34 28 33 0
-34 -28 33 0
-34 28 -33 0
35 34 0
-35 -34 0
36 -27 0
36 -35 0
-36 27 35 0
37 -11 -11 0
37 11 11 0
-37 -11 11 0
-37 11 -11 0
-38 12 0
-38 14 0
38 -12 -14 0
39 -38 -38 0
39 38 38 0
-39 -38 38 0
-39 38 -38 0
-40 37 0
-40 39 0
40 -37 -39 0
-41 2 0
-41 12 0
41 -2 -12 0
-42 41 0
-42 15 0
42 -41 -15 0
43 -42 -42 0
43 42 42 0
-43 -42 42 0
-43 42 -42 0
-44 40 0
-44 43 0
44 -40 -43 0
-45 12 0
-45 15 0
45 -12 -15 0
-46 45 0
-46 3 0
46 -45 -3 0
-47 46 0
-47 4 0
47 -46 -4 0
48 -47 -47 0
48 47 47 0
-48 -47 47 0
-48 47 -47 0
-49 44 0
-49 48 0
49 -44 -48 0
-51 6 0
-51 16 0
51 -6 -16 0
52 -50 -51 0
52 50 51 0
-52 -50 51 0
-52 50 -51 0
-53 49 0
-53 52 0
53 -49 -52 0
-54 21 0
-54 22 0
54 -21 -22 0
-55 46 0
-55 5 0
55 -46 -5 0
-56 54 0
-56 55 0
56 -54 -55 0
57 -56 -56 0
57 56 56 0
-57 -56 56 0
-57 56 -56 0
-58 53 0
-58 57 0
58 -53 -57 0
-59 29 0
-59 12 0
59 -29 -12 0
-60 59 0
-60 15 0
60 -59 -15 0
-61 6 0
-61 21 0
61 -6 -21 0
-62 61 0
-62 23 0
62 -61 -23 0
-63 60 0
-63 62 0
63 -60 -62 0
64 -63 -63 0
64 63 63 0
-64 -63 63 0
-64 63 -63 0
-65 58 0
-65 64 0
65 -58 -64 0
-66 24 0
-66 30 0
66 -24 -30 0
-67 66 0
-67 31 0
67 -66 -31 0
-68 55 0
-68 67 0
68 -55 -67 0
69 -68 -68 0
69 68 68 0
-69 -68 68 0
-69 68 -68 0
-70 65 0
-70 69 0
70 -65 -69 0
-72 71 0
-72 12 0
72 -71 -12 0
-73 72 0
-73 15 0
73 -72 -15 0
-74 33 0
-74 73 0
74 -33 -73 0
-75 62 0
-75 74 0
75 -62 -74 0
76 -75 -75 0
76 75 75 0
-76 -75 75 0
-76 75 -75 0
-77 70 0
-77 76 0
77 -70 -76 0
79 71 0
-79 -71 0
-81 79 0
-81 80 0
81 -79 -80 0
-82 81 0
-82 55 0
82 -81 -55 0
-83 78 0
-83 82 0
83 -78 -82 0
-84 66 0
-84 32 0
84 -66 -32 0
-85 84 0
-85 82 0
85 -84 -82 0
86 -83 -85 0
86 83 85 0
-86 -83 85 0
-86 83 -85 0
-87 77 0
-87 86 0
87 -77 -86 0
88 80 0
-88 -80 0
-89 79 0
-89 88 0
89 -79 -88 0
90 -33 89 0
90 33 -89 0
-90 -33 -89 0
-90 33 89 0
-92 91 0
-92 12 0
92 -91 -12 0
-93 92 0
-93 15 0
93 -92 -15 0
-94 93 0
-94 62 0
94 -93 -62 0
-95 90 0
-95 94 0
95 -90 -94 0
-96 33 0
-96 79 0
96 -33 -79 0
-97 96 0
-97 88 0
97 -96 -88 0
-98 97 0
-98 94 0
98 -97 -94 0
99 -95 -98 0
99 95 98 0
-99 -95 98 0
-99 95 -98 0
-100 87 0
-100 99 0
100 -87 -99 0
101 91 0
-101 -91 0
-102 89 0
-102 101 0
102 -89 -101 0
-104 102 0
-104 103 0
104 -102 -103 0
-105 55 0
-105 78 0
105 -55 -78 0
-106 104 0
-106 105 0
106 -104 -105 0
-107 55 0
-107 84 0
107 -55 -84 0
-108 104 0
-108 107 0
108 -104 -107 0
109 -106 -108 0
109 106 108 0
-109 -106 108 0
-109 106 -108 0
-110 100 0
-110 109 0
110 -100 -109 0
111 103 0
-111 -103 0
-112 101 0
-112 111 0
112 -101 -111 0
-114 113 0
-114 12 0
114 -113 -12 0
-115 114 0
-115 15 0
115 -114 -15 0
-116 112 0
-116 115 0
116 -112 -115 0
-117 62 0
-117 90 0
117 -62 -90 0
-118 116 0
-118 117 0
118 -116 -117 0
-119 62 0
-119 97 0
119 -62 -97 0
-120 116 0
-120 119 0
120 -116 -119 0
121 -118 -120 0
121 118 120 0
-121 -118 120 0
-121 118 -120 0
-122 110 0
-122 121 0
122 -110 -121 0
123 113 0
-123 -113 0
-125 123 0
-125 124 0
125 -123 -124 0
-126 125 0
-126 55 0
126 -125 -55 0
-127 102 0
-127 111 0
127 -102 -111 0
-128 78 0
-128 127 0
128 -78 -127 0
-129 126 0
-129 128 0
129 -126 -128 0
-130 84 0
-130 127 0
130 -84 -127 0
-131 126 0
-131 130 0
131 -126 -130 0
132 -129 -131 0
132 129 131 0
-132 -129 131 0
-132 129 -131 0
-133 122 0
-133 132 0
133 -122 -132 0
-135 134 0
-135 12 0
135 -134 -12 0
-136 135 0
-136 15 0
136 -135 -15 0
-137 136 0
-137 62 0
137 -136 -62 0
-138 112 0
-138 123 0
138 -112 -123 0
139 124 0
-139 -124 0
-140 138 0
-140 139 0
140 -138 -139 0
-141 90 0
-141 140 0
141 -90 -140 0
-142 137 0
-142 141 0
142 -137 -141 0
-143 97 0
-143 140 0
143 -97 -140 0
-144 137 0
-144 143 0
144 -137 -143 0
145 -142 -144 0
145 142 144 0
-145 -142 144 0
-145 142 -144 0
-146 133 0
-146 145 0
146 -133 -145 0
-147 123 0
-147 139 0
147 -123 -139 0
148 134 0
-148 -134 0
-149 147 0
-149 148 0
149 -147 -148 0
-151 149 0
-151 150 0
151 -149 -150 0
-152 127 0
-152 151 0
152 -127 -151 0
-153 105 0
-153 152 0
153 -105 -152 0
-154 107 0
-154 152 0
154 -107 -152 0
155 -153 -154 0
155 153 154 0
-155 -153 154 0
-155 153 -154 0
-156 146 0
-156 155 0
156 -146 -155 0
157 -36 0
157 -156 0
-157 36 156 0
157 0
